NAME:  test1
TYPE: AGTSP
COMMENT: gtsp tours
DIMENSION:  57
GTSP_SETS: 15
EDGE_WEIGHT_TYPE: EXPLICIT
EDGE_WEIGHT_FORMAT: FULL_MATRIX 
EDGE_WEIGHT_SECTION
999999	0	999999	999999	15877	15877	15869	999999	15891	15891	15883	999999	15889	15889	15881	999999	15901	15901	15901	15893	15920	15920	999999	999999	15892	15892	15884	999999	15887	15887	15879	999999	15900	15900	15900	15892	15894	15894	15886	999999	15890	15890	15882	999999	15891	15891	15883	999999	15889	15889	15881	999999	15893	15893	15885	999999	0
999999	999999	0	999999	15877	15877	15877	15869	15891	15891	15891	15883	15889	15889	15889	15881	15901	15901	15901	999999	15920	15920	15920	999999	15892	15892	15892	15884	15887	15887	15887	15879	15900	15900	15900	999999	15894	15894	15894	15886	15890	15890	15890	15882	15891	15891	15891	15883	15889	15889	15889	15881	15893	15893	15893	15885	0
999999	999999	999999	0	15877	15877	15877	15877	15891	15891	15891	15891	15889	15889	15889	15889	15901	15901	15901	15901	15920	15920	15920	15920	15892	15892	15892	15892	15887	15887	15887	15887	15900	15900	15900	15900	15894	15894	15894	15894	15890	15890	15890	15890	15891	15891	15891	15891	15889	15889	15889	15889	15893	15893	15893	15893	0
0	999999	999999	999999	15877	15869	999999	999999	15891	15883	999999	999999	15889	15881	999999	999999	15901	15901	15893	999999	15920	15920	15920	15912	15892	15884	999999	999999	15887	15879	999999	999999	15900	15900	15892	999999	15894	15886	999999	999999	15890	15882	999999	999999	15891	15883	999999	999999	15889	15881	999999	999999	15893	15885	999999	999999	0
15877	15877	15869	999999	999999	0	999999	999999	15889	15889	15881	999999	15888	15888	15880	999999	15900	15900	15900	15892	15921	15921	999999	999999	15891	15891	15883	999999	15887	15887	15879	999999	15901	15901	15901	15893	15892	15892	15884	999999	15892	15892	15884	999999	15893	15893	15885	999999	15887	15887	15879	999999	15895	15895	15887	999999	0
15877	15877	15877	15869	999999	999999	0	999999	15889	15889	15889	15881	15888	15888	15888	15880	15900	15900	15900	999999	15921	15921	15921	999999	15891	15891	15891	15883	15887	15887	15887	15879	15901	15901	15901	999999	15892	15892	15892	15884	15892	15892	15892	15884	15893	15893	15893	15885	15887	15887	15887	15879	15895	15895	15895	15887	0
15877	15877	15877	15877	999999	999999	999999	0	15889	15889	15889	15889	15888	15888	15888	15888	15900	15900	15900	15900	15921	15921	15921	15921	15891	15891	15891	15891	15887	15887	15887	15887	15901	15901	15901	15901	15892	15892	15892	15892	15892	15892	15892	15892	15893	15893	15893	15893	15887	15887	15887	15887	15895	15895	15895	15895	0
15877	15869	999999	999999	0	999999	999999	999999	15889	15881	999999	999999	15888	15880	999999	999999	15900	15900	15892	999999	15921	15921	15921	15913	15891	15883	999999	999999	15887	15879	999999	999999	15901	15901	15893	999999	15892	15884	999999	999999	15892	15884	999999	999999	15893	15885	999999	999999	15887	15879	999999	999999	15895	15887	999999	999999	0
15891	15891	15883	999999	15889	15889	15881	999999	999999	0	999999	999999	15894	15894	15886	999999	15901	15901	15901	15893	15929	15929	999999	999999	15883	15883	15875	999999	15894	15894	15886	999999	15911	15911	15911	15903	15892	15892	15884	999999	15903	15903	15903	15895	15907	15907	15907	15899	15878	15878	15870	999999	15909	15909	15909	15901	0
15891	15891	15891	15883	15889	15889	15889	15881	999999	999999	0	999999	15894	15894	15894	15886	15901	15901	15901	999999	15929	15929	15929	999999	15883	15883	15883	15875	15894	15894	15894	15886	15911	15911	15911	999999	15892	15892	15892	15884	15903	15903	15903	999999	15907	15907	15907	999999	15878	15878	15878	15870	15909	15909	15909	999999	0
15891	15891	15891	15891	15889	15889	15889	15889	999999	999999	999999	0	15894	15894	15894	15894	15901	15901	15901	15901	15929	15929	15929	15929	15883	15883	15883	15883	15894	15894	15894	15894	15911	15911	15911	15911	15892	15892	15892	15892	15903	15903	15903	15903	15907	15907	15907	15907	15878	15878	15878	15878	15909	15909	15909	15909	0
15891	15883	999999	999999	15889	15881	999999	999999	0	999999	999999	999999	15894	15886	999999	999999	15901	15901	15893	999999	15929	15929	15929	15921	15883	15875	999999	999999	15894	15886	999999	999999	15911	15911	15903	999999	15892	15884	999999	999999	15903	15903	15895	999999	15907	15907	15899	999999	15878	15870	999999	999999	15909	15909	15901	999999	0
15889	15889	15881	999999	15888	15888	15880	999999	15894	15894	15886	999999	999999	0	999999	999999	15887	15887	15879	999999	15934	15934	999999	999999	15900	15900	15900	15892	15876	15876	15868	999999	15891	15891	15883	999999	15883	15883	15875	999999	15886	15886	15878	999999	15894	15894	15886	999999	15895	15895	15887	999999	15897	15897	15897	15889	0
15889	15889	15889	15881	15888	15888	15888	15880	15894	15894	15894	15886	999999	999999	0	999999	15887	15887	15887	15879	15934	15934	15934	999999	15900	15900	15900	999999	15876	15876	15876	15868	15891	15891	15891	15883	15883	15883	15883	15875	15886	15886	15886	15878	15894	15894	15894	15886	15895	15895	15895	15887	15897	15897	15897	999999	0
15889	15889	15889	15889	15888	15888	15888	15888	15894	15894	15894	15894	999999	999999	999999	0	15887	15887	15887	15887	15934	15934	15934	15934	15900	15900	15900	15900	15876	15876	15876	15876	15891	15891	15891	15891	15883	15883	15883	15883	15886	15886	15886	15886	15894	15894	15894	15894	15895	15895	15895	15895	15897	15897	15897	15897	0
15889	15881	999999	999999	15888	15880	999999	999999	15894	15886	999999	999999	0	999999	999999	999999	15887	15879	999999	999999	15934	15934	15934	15926	15900	15900	15892	999999	15876	15868	999999	999999	15891	15883	999999	999999	15883	15875	999999	999999	15886	15878	999999	999999	15894	15886	999999	999999	15895	15887	999999	999999	15897	15897	15889	999999	0
15901	15901	15901	15893	15900	15900	15900	15892	15901	15901	15901	15893	15887	15887	15879	999999	999999	0	999999	999999	15946	15946	999999	999999	15909	15909	15909	15901	15888	15888	15880	999999	15894	15894	15886	999999	15884	15884	15876	999999	15895	15895	15887	999999	15905	15905	15905	15897	15902	15902	15902	15894	15907	15907	15907	15899	0
15901	15901	15901	999999	15900	15900	15900	999999	15901	15901	15901	999999	15887	15887	15887	15879	999999	999999	0	999999	15946	15946	15946	999999	15909	15909	15909	999999	15888	15888	15888	15880	15894	15894	15894	15886	15884	15884	15884	15876	15895	15895	15895	15887	15905	15905	15905	999999	15902	15902	15902	999999	15907	15907	15907	999999	0
15901	15901	15901	15901	15900	15900	15900	15900	15901	15901	15901	15901	15887	15887	15887	15887	999999	999999	999999	0	15946	15946	15946	15946	15909	15909	15909	15909	15888	15888	15888	15888	15894	15894	15894	15894	15884	15884	15884	15884	15895	15895	15895	15895	15905	15905	15905	15905	15902	15902	15902	15902	15907	15907	15907	15907	0
15901	15901	15893	999999	15900	15900	15892	999999	15901	15901	15893	999999	15887	15879	999999	999999	0	999999	999999	999999	15946	999999	999999	999999	15909	15909	15901	999999	15888	15880	999999	999999	15894	15886	999999	999999	15884	15876	999999	999999	15895	15887	999999	999999	15905	15905	15897	999999	15902	15902	15894	999999	15907	15907	15899	999999	0
15920	15920	999999	999999	15921	15921	999999	999999	15929	15929	999999	999999	15934	15934	999999	999999	15946	15946	999999	999999	999999	0	999999	999999	15922	15922	999999	999999	15933	15933	999999	999999	15940	15940	999999	999999	15939	15939	999999	999999	15931	15931	999999	999999	15922	15922	999999	999999	15926	15926	999999	999999	15921	15921	999999	999999	0
15920	15920	15920	999999	15921	15921	15921	999999	15929	15929	15929	999999	15934	15934	15934	999999	15946	15946	15946	999999	999999	999999	0	999999	15922	15922	15922	999999	15933	15933	15933	999999	15940	15940	15940	999999	15939	15939	15939	999999	15931	15931	15931	999999	15922	15922	15922	999999	15926	15926	15926	999999	15921	15921	15921	999999	0
15920	15920	15920	15920	15921	15921	15921	15921	15929	15929	15929	15929	15934	15934	15934	15934	15946	15946	15946	15946	999999	999999	999999	0	15922	15922	15922	15922	15933	15933	15933	15933	15940	15940	15940	15940	15939	15939	15939	15939	15931	15931	15931	15931	15922	15922	15922	15922	15926	15926	15926	15926	15921	15921	15921	15921	0
15920	15920	15920	15912	15921	15921	15921	15913	15929	15929	15929	15921	15934	15934	15934	15926	15946	999999	999999	999999	0	999999	999999	999999	15922	15922	15922	15914	15933	15933	15933	15925	15940	999999	999999	999999	15939	999999	999999	999999	15931	15931	15931	15923	15922	15922	15922	15914	15926	15926	15926	15918	15921	15921	15921	15913	0
15892	15892	15884	999999	15891	15891	15883	999999	15883	15883	15875	999999	15900	15900	15900	15892	15909	15909	15909	15901	15922	15922	999999	999999	999999	0	999999	999999	15900	15900	15900	15892	15916	15916	15916	15908	15899	15899	15899	15891	15907	15907	15907	15899	15909	15909	15909	15901	15881	15881	15873	999999	15911	15911	15911	15903	0
15892	15892	15892	15884	15891	15891	15891	15883	15883	15883	15883	15875	15900	15900	15900	999999	15909	15909	15909	999999	15922	15922	15922	999999	999999	999999	0	999999	15900	15900	15900	999999	15916	15916	15916	999999	15899	15899	15899	999999	15907	15907	15907	999999	15909	15909	15909	999999	15881	15881	15881	15873	15911	15911	15911	999999	0
15892	15892	15892	15892	15891	15891	15891	15891	15883	15883	15883	15883	15900	15900	15900	15900	15909	15909	15909	15909	15922	15922	15922	15922	999999	999999	999999	0	15900	15900	15900	15900	15916	15916	15916	15916	15899	15899	15899	15899	15907	15907	15907	15907	15909	15909	15909	15909	15881	15881	15881	15881	15911	15911	15911	15911	0
15892	15884	999999	999999	15891	15883	999999	999999	15883	15875	999999	999999	15900	15900	15892	999999	15909	15909	15901	999999	15922	15922	15922	15914	0	999999	999999	999999	15900	15900	15892	999999	15916	15916	15908	999999	15899	15899	15891	999999	15907	15907	15899	999999	15909	15909	15901	999999	15881	15873	999999	999999	15911	15911	15903	999999	0
15887	15887	15879	999999	15887	15887	15879	999999	15894	15894	15886	999999	15876	15876	15868	999999	15888	15888	15880	999999	15933	15933	999999	999999	15900	15900	15900	15892	999999	0	999999	999999	15892	15892	15884	999999	15883	15883	15875	999999	15885	15885	15877	999999	15894	15894	15886	999999	15894	15894	15886	999999	15896	15896	15888	999999	0
15887	15887	15887	15879	15887	15887	15887	15879	15894	15894	15894	15886	15876	15876	15876	15868	15888	15888	15888	15880	15933	15933	15933	999999	15900	15900	15900	999999	999999	999999	0	999999	15892	15892	15892	15884	15883	15883	15883	15875	15885	15885	15885	15877	15894	15894	15894	15886	15894	15894	15894	15886	15896	15896	15896	15888	0
15887	15887	15887	15887	15887	15887	15887	15887	15894	15894	15894	15894	15876	15876	15876	15876	15888	15888	15888	15888	15933	15933	15933	15933	15900	15900	15900	15900	999999	999999	999999	0	15892	15892	15892	15892	15883	15883	15883	15883	15885	15885	15885	15885	15894	15894	15894	15894	15894	15894	15894	15894	15896	15896	15896	15896	0
15887	15879	999999	999999	15887	15879	999999	999999	15894	15886	999999	999999	15876	15868	999999	999999	15888	15880	999999	999999	15933	15933	15933	15925	15900	15900	15892	999999	0	999999	999999	999999	15892	15884	999999	999999	15883	15875	999999	999999	15885	15877	999999	999999	15894	15886	999999	999999	15894	15886	999999	999999	15896	15888	999999	999999	0
15900	15900	15900	15892	15901	15901	15901	15893	15911	15911	15911	15903	15891	15891	15883	999999	15894	15894	15886	999999	15940	15940	999999	999999	15916	15916	15916	15908	15892	15892	15884	999999	999999	0	999999	999999	15898	15898	15898	15890	15885	15885	15877	999999	15893	15893	15885	999999	15911	15911	15911	15903	15894	15894	15886	999999	0
15900	15900	15900	999999	15901	15901	15901	999999	15911	15911	15911	999999	15891	15891	15891	15883	15894	15894	15894	15886	15940	15940	15940	999999	15916	15916	15916	999999	15892	15892	15892	15884	999999	999999	0	999999	15898	15898	15898	999999	15885	15885	15885	15877	15893	15893	15893	15885	15911	15911	15911	999999	15894	15894	15894	15886	0
15900	15900	15900	15900	15901	15901	15901	15901	15911	15911	15911	15911	15891	15891	15891	15891	15894	15894	15894	15894	15940	15940	15940	15940	15916	15916	15916	15916	15892	15892	15892	15892	999999	999999	999999	0	15898	15898	15898	15898	15885	15885	15885	15885	15893	15893	15893	15893	15911	15911	15911	15911	15894	15894	15894	15894	0
15900	15900	15892	999999	15901	15901	15893	999999	15911	15911	15903	999999	15891	15883	999999	999999	15894	15886	999999	999999	15940	999999	999999	999999	15916	15916	15908	999999	15892	15884	999999	999999	0	999999	999999	999999	15898	15898	15890	999999	15885	15877	999999	999999	15893	15885	999999	999999	15911	15911	15903	999999	15894	15886	999999	999999	0
15894	15894	15886	999999	15892	15892	15884	999999	15892	15892	15884	999999	15883	15883	15875	999999	15884	15884	15876	999999	15939	15939	999999	999999	15899	15899	15899	15891	15883	15883	15875	999999	15898	15898	15898	15890	999999	0	999999	999999	15894	15894	15886	999999	15903	15903	15903	15895	15893	15893	15885	999999	15905	15905	15905	15897	0
15894	15894	15894	15886	15892	15892	15892	15884	15892	15892	15892	15884	15883	15883	15883	15875	15884	15884	15884	15876	15939	15939	15939	999999	15899	15899	15899	999999	15883	15883	15883	15875	15898	15898	15898	999999	999999	999999	0	999999	15894	15894	15894	15886	15903	15903	15903	999999	15893	15893	15893	15885	15905	15905	15905	999999	0
15894	15894	15894	15894	15892	15892	15892	15892	15892	15892	15892	15892	15883	15883	15883	15883	15884	15884	15884	15884	15939	15939	15939	15939	15899	15899	15899	15899	15883	15883	15883	15883	15898	15898	15898	15898	999999	999999	999999	0	15894	15894	15894	15894	15903	15903	15903	15903	15893	15893	15893	15893	15905	15905	15905	15905	0
15894	15886	999999	999999	15892	15884	999999	999999	15892	15884	999999	999999	15883	15875	999999	999999	15884	15876	999999	999999	15939	999999	999999	999999	15899	15899	15891	999999	15883	15875	999999	999999	15898	15898	15890	999999	0	999999	999999	999999	15894	15886	999999	999999	15903	15903	15895	999999	15893	15885	999999	999999	15905	15905	15897	999999	0
15890	15890	15882	999999	15892	15892	15884	999999	15903	15903	15903	15895	15886	15886	15878	999999	15895	15895	15887	999999	15931	15931	999999	999999	15907	15907	15907	15899	15885	15885	15877	999999	15885	15885	15877	999999	15894	15894	15886	999999	999999	0	999999	999999	15885	15885	15877	999999	15903	15903	15903	15895	15887	15887	15879	999999	0
15890	15890	15890	15882	15892	15892	15892	15884	15903	15903	15903	999999	15886	15886	15886	15878	15895	15895	15895	15887	15931	15931	15931	999999	15907	15907	15907	999999	15885	15885	15885	15877	15885	15885	15885	15877	15894	15894	15894	15886	999999	999999	0	999999	15885	15885	15885	15877	15903	15903	15903	999999	15887	15887	15887	15879	0
15890	15890	15890	15890	15892	15892	15892	15892	15903	15903	15903	15903	15886	15886	15886	15886	15895	15895	15895	15895	15931	15931	15931	15931	15907	15907	15907	15907	15885	15885	15885	15885	15885	15885	15885	15885	15894	15894	15894	15894	999999	999999	999999	0	15885	15885	15885	15885	15903	15903	15903	15903	15887	15887	15887	15887	0
15890	15882	999999	999999	15892	15884	999999	999999	15903	15903	15895	999999	15886	15878	999999	999999	15895	15887	999999	999999	15931	15931	15931	15923	15907	15907	15899	999999	15885	15877	999999	999999	15885	15877	999999	999999	15894	15886	999999	999999	0	999999	999999	999999	15885	15877	999999	999999	15903	15903	15895	999999	15887	15879	999999	999999	0
15891	15891	15883	999999	15893	15893	15885	999999	15907	15907	15907	15899	15894	15894	15886	999999	15905	15905	15905	15897	15922	15922	999999	999999	15909	15909	15909	15901	15894	15894	15886	999999	15893	15893	15885	999999	15903	15903	15903	15895	15885	15885	15877	999999	999999	0	999999	999999	15906	15906	15906	15898	15877	15877	15869	999999	0
15891	15891	15891	15883	15893	15893	15893	15885	15907	15907	15907	999999	15894	15894	15894	15886	15905	15905	15905	999999	15922	15922	15922	999999	15909	15909	15909	999999	15894	15894	15894	15886	15893	15893	15893	15885	15903	15903	15903	999999	15885	15885	15885	15877	999999	999999	0	999999	15906	15906	15906	999999	15877	15877	15877	15869	0
15891	15891	15891	15891	15893	15893	15893	15893	15907	15907	15907	15907	15894	15894	15894	15894	15905	15905	15905	15905	15922	15922	15922	15922	15909	15909	15909	15909	15894	15894	15894	15894	15893	15893	15893	15893	15903	15903	15903	15903	15885	15885	15885	15885	999999	999999	999999	0	15906	15906	15906	15906	15877	15877	15877	15877	0
15891	15883	999999	999999	15893	15885	999999	999999	15907	15907	15899	999999	15894	15886	999999	999999	15905	15905	15897	999999	15922	15922	15922	15914	15909	15909	15901	999999	15894	15886	999999	999999	15893	15885	999999	999999	15903	15903	15895	999999	15885	15877	999999	999999	0	999999	999999	999999	15906	15906	15898	999999	15877	15869	999999	999999	0
15889	15889	15881	999999	15887	15887	15879	999999	15878	15878	15870	999999	15895	15895	15887	999999	15902	15902	15902	15894	15926	15926	999999	999999	15881	15881	15873	999999	15894	15894	15886	999999	15911	15911	15911	15903	15893	15893	15885	999999	15903	15903	15903	15895	15906	15906	15906	15898	999999	0	999999	999999	15908	15908	15908	15900	0
15889	15889	15889	15881	15887	15887	15887	15879	15878	15878	15878	15870	15895	15895	15895	15887	15902	15902	15902	999999	15926	15926	15926	999999	15881	15881	15881	15873	15894	15894	15894	15886	15911	15911	15911	999999	15893	15893	15893	15885	15903	15903	15903	999999	15906	15906	15906	999999	999999	999999	0	999999	15908	15908	15908	999999	0
15889	15889	15889	15889	15887	15887	15887	15887	15878	15878	15878	15878	15895	15895	15895	15895	15902	15902	15902	15902	15926	15926	15926	15926	15881	15881	15881	15881	15894	15894	15894	15894	15911	15911	15911	15911	15893	15893	15893	15893	15903	15903	15903	15903	15906	15906	15906	15906	999999	999999	999999	0	15908	15908	15908	15908	0
15889	15881	999999	999999	15887	15879	999999	999999	15878	15870	999999	999999	15895	15887	999999	999999	15902	15902	15894	999999	15926	15926	15926	15918	15881	15873	999999	999999	15894	15886	999999	999999	15911	15911	15903	999999	15893	15885	999999	999999	15903	15903	15895	999999	15906	15906	15898	999999	0	999999	999999	999999	15908	15908	15900	999999	0
15893	15893	15885	999999	15895	15895	15887	999999	15909	15909	15909	15901	15897	15897	15897	15889	15907	15907	15907	15899	15921	15921	999999	999999	15911	15911	15911	15903	15896	15896	15888	999999	15894	15894	15886	999999	15905	15905	15905	15897	15887	15887	15879	999999	15877	15877	15869	999999	15908	15908	15908	15900	999999	0	999999	999999	0
15893	15893	15893	15885	15895	15895	15895	15887	15909	15909	15909	999999	15897	15897	15897	999999	15907	15907	15907	999999	15921	15921	15921	999999	15911	15911	15911	999999	15896	15896	15896	15888	15894	15894	15894	15886	15905	15905	15905	999999	15887	15887	15887	15879	15877	15877	15877	15869	15908	15908	15908	999999	999999	999999	0	999999	0
15893	15893	15893	15893	15895	15895	15895	15895	15909	15909	15909	15909	15897	15897	15897	15897	15907	15907	15907	15907	15921	15921	15921	15921	15911	15911	15911	15911	15896	15896	15896	15896	15894	15894	15894	15894	15905	15905	15905	15905	15887	15887	15887	15887	15877	15877	15877	15877	15908	15908	15908	15908	999999	999999	999999	0	0
15893	15885	999999	999999	15895	15887	999999	999999	15909	15909	15901	999999	15897	15897	15889	999999	15907	15907	15899	999999	15921	15921	15921	15913	15911	15911	15903	999999	15896	15888	999999	999999	15894	15886	999999	999999	15905	15905	15897	999999	15887	15879	999999	999999	15877	15869	999999	999999	15908	15908	15900	999999	0	999999	999999	999999	0
15866	999999	999999	999999	15866	999999	999999	999999	15866	999999	999999	999999	15866	999999	999999	999999	15866	999999	999999	999999	15866	999999	999999	999999	15866	999999	999999	999999	15866	999999	999999	999999	15866	999999	999999	999999	15866	999999	999999	999999	15866	999999	999999	999999	15866	999999	999999	999999	15866	999999	999999	999999	15866	999999	999999	999999	999999
GTSP_SET_SECTION:
1 1 2 3 4 -1
2 5 6 7 8 -1
3 9 10 11 12 -1
4 13 14 15 16 -1
5 17 18 19 20 -1
6 21 22 23 24 -1
7 25 26 27 28 -1
8 29 30 31 32 -1
9 33 34 35 36 -1
10 37 38 39 40 -1
11 41 42 43 44 -1
12 45 46 47 48 -1
13 49 50 51 52 -1
14 53 54 55 56 -1
15 57 -1
EOF